% Generado automaticamente desde C:/Users/andres/Desktop/SEPTIMO SEMESTRE/ADAII/proyecto_final/Proyecto-Optimizacion-ADA2/BateriaPruebas_2025_2_P2-txt/Prueba18.txt

n = 75;
m = 3;
ct = 35.0;
maxMovs = 35.0;
v = [0.243, 0.513, 0.829];
p = [11, 55, 9];
s = [| 4, 5, 2 | 33, 14, 8 | 1, 2, 6 |];
